Nb of jobs, Nb of Machines, Time seed, Machine seed, Upper bound, Lower bound
10,5,-1,-1,-1,-1
Times
87,2,32,83,53
94,83,70,4,10
80,97,5,12,21
14,80,41,78,53
55,23,8,32,47
86,29,60,67,84
98,76,75,95,71
70,81,76,65,38
75,58,4,81,32
2,56,35,9,70
Machines
2,5,3,4,1
4,5,2,1,3
5,4,1,2,3
1,2,4,3,5
1,2,4,5,3
5,4,1,2,3
2,1,4,3,5
4,3,5,2,1
5,4,2,3,1
4,5,2,1,3
